2496, 0, 0, 86, 4
2497, 0, 1, 32, 0
2498, 0, 2, 51, 1
2499, 0, 3, 66, 2
2500, 0, 4, 53, 3
2501, 1, 0, 38, 1
2502, 1, 1, 44, 2
2503, 1, 2, 81, 3
2504, 1, 3, 79, 4
2505, 1, 4, 67, 0
2506, 2, 0, 38, 3
2507, 2, 1, 64, 4
2508, 2, 2, 58, 0
2509, 2, 3, 98, 1
2510, 2, 4, 61, 2
2511, 3, 0, 31, 3
2512, 3, 1, 68, 4
2513, 3, 2, 40, 2
2514, 3, 3, 76, 0
2515, 3, 4, 95, 1
